24
Anthracene (organic semiconductor)
C         -2.4494    0.7145    0.0000
C         -2.4494   -0.7145    0.0000
C         -1.2247   -1.4289    0.0000
C          0.0000   -0.7145    0.0000
C          0.0000    0.7145    0.0000
C         -1.2247    1.4289    0.0000
C          1.2247   -1.4289    0.0000
C          2.4494   -0.7145    0.0000
C          2.4494    0.7145    0.0000
C          1.2247    1.4289    0.0000
H         -3.3911    1.2503    0.0000
H         -3.3911   -1.2503    0.0000
H         -1.2247   -2.5145    0.0000
H         -1.2247    2.5145    0.0000
H          1.2247   -2.5145    0.0000
H          3.3911   -1.2503    0.0000
H          3.3911    1.2503    0.0000
H          1.2247    2.5145    0.0000
C          0.0000   -2.1434    0.0000
C          0.0000    2.1434    0.0000
H          0.0000   -3.2290    0.0000
H          0.0000    3.2290    0.0000
H         -0.8900   -1.7145    0.8900
H          0.8900    1.7145    0.8900
