21
Aspirin (acetylsalicylic acid)
C          1.2131    0.2213    0.0000
C          2.5952    0.2213    0.0000
C          3.2862    1.4354    0.0000
C          2.5952    2.6495    0.0000
C          1.2131    2.6495    0.0000
C          0.5221    1.4354    0.0000
O         -0.8599    1.4354    0.0000
C         -1.5509    2.6495    0.0000
O         -2.7650    2.6495    0.0000
C         -0.8599    3.8636    0.0000
H          0.6575   -0.7228    0.0000
H          3.1508   -0.7228    0.0000
H          4.3706    1.4354    0.0000
H          3.1508    3.5936    0.0000
H          0.6575    3.5936    0.0000
H         -0.3043    4.8077    0.0000
H         -1.8854    3.8636    0.0000
O          0.4066    0.4066    1.4354
C          1.0976   -0.8075    1.4354
O          2.2117   -0.8075    1.4354
H          0.5420   -1.7516    1.4354
